ADDGRID = .TRUE.
ALGO = Normal
EDIFF = 5e-05
EDIFFG = -0.01
ENCUT = 520
IBRION = 2
ISIF = 3
ISMEAR = 1
LASPH = .TRUE.
LCHARG = False
LREAL = False
LWAVE = False
NELM = 100
NELMIN = 4
NSW = 200
PREC = Accurate
SIGMA = 0.05
NCORE = 4
