Al4
1.0
4.043364 0.000000 0.000000
0.485204 4.014146 0.000000
0.000000 0.000000 4.043364
Al
4
direct
-0.000000 -0.000000 0.000000 Al
-0.000000 0.500000 0.500000 Al
0.500000 0.000000 0.500000 Al
0.500000 0.500000 0.000000 Al

0.000000 0.000000 0.000000
0.000000 0.000000 0.000000
0.000000 0.000000 0.000000
0.000000 0.000000 0.000000
